
Log started (V11.0.0) Sat May 17 19:57:59 2008

Tried aggregator 1 time.
Reduced MIP has 150 rows, 5001 columns, and 10050 nonzeros.
Presolve time =    0.05 sec.
Clique table members: 100.
MIP emphasis: balance optimality and feasibility.
MIP search method: dynamic search.
Parallel mode: none, using 1 thread.
Root relaxation solution time =    0.30 sec.

        Nodes                                         Cuts/
   Node  Left     Objective  IInf  Best Integer     Best Node    ItCnt     Gap

*     0+    0                       105470.0000     2004.9199      510   98.10%
*     0+    0                         2017.0000     2004.9199      510    0.60%
      0     0     2007.0000    68     2017.0000      Fract: 6      534    0.50%
      0     0     2007.0000    77     2017.0000       Cuts: 4      546    0.50%
      0     0     2007.0000    80     2017.0000       Cuts: 2      549    0.50%
*     0+    0                         2015.0000     2007.0000      549    0.40%
      0     2     2007.0000    80     2015.0000     2007.0000      549    0.40%
    100    26        cutoff           2015.0000     2007.0000     6227    0.40%
    200    32     2011.0000    57     2015.0000     2007.0000    13554    0.40%
    300    44        cutoff           2015.0000     2007.0000    21499    0.40%
    400    52     2011.0000    60     2015.0000     2007.0000    27486    0.40%
    500    94     2007.0000    71     2015.0000     2007.0000    30999    0.40%

Clique cuts applied:  2
Implied bound cuts applied:  2
Mixed integer rounding cuts applied:  1
Gomory fractional cuts applied:  2

Solution pool: 3 solutions saved.

MIP - Integer optimal solution:  Objective = 2.0150000000e+003
Solution time =   11.80 sec.  Iterations = 33742  Nodes = 531


Incumbent solution
Variable Name           Solution Value
Cmax                       2015.000000
X_1_28                        1.000000
X_2_6                         1.000000
X_3_16                        1.000000
X_4_39                        1.000000
X_5_7                         1.000000
X_6_11                        1.000000
X_7_13                        1.000000
X_8_40                        1.000000
X_9_38                        1.000000
X_10_17                       1.000000
X_11_19                       1.000000
X_12_6                        1.000000
X_13_35                       1.000000
X_14_46                       1.000000
X_15_43                       1.000000
X_16_8                        1.000000
X_17_37                       1.000000
X_18_17                       1.000000
X_19_20                       1.000000
X_20_48                       1.000000
X_21_3                        1.000000
X_22_21                       1.000000
X_23_46                       1.000000
X_24_31                       1.000000
X_25_24                       1.000000
X_26_5                        1.000000
X_27_50                       1.000000
X_28_12                       1.000000
X_29_23                       1.000000
X_30_11                       1.000000
X_31_22                       1.000000
X_32_45                       1.000000
X_33_34                       1.000000
X_34_14                       1.000000
X_35_42                       1.000000
X_36_27                       1.000000
X_37_2                        1.000000
X_38_45                       1.000000
X_39_29                       1.000000
X_40_21                       1.000000
X_41_36                       1.000000
X_42_33                       1.000000
X_43_24                       1.000000
X_44_47                       1.000000
X_45_8                        1.000000
X_46_5                        1.000000
X_47_31                       1.000000
X_48_28                       1.000000
X_49_42                       1.000000
X_50_12                       1.000000
X_51_30                       1.000000
X_52_23                       1.000000
X_53_39                       1.000000
X_54_40                       1.000000
X_55_22                       1.000000
X_56_41                       1.000000
X_57_10                       1.000000
X_58_25                       1.000000
X_59_15                       1.000000
X_60_26                       1.000000
X_61_48                       1.000000
X_62_19                       1.000000
X_63_49                       1.000000
X_64_47                       1.000000
X_65_32                       1.000000
X_66_18                       1.000000
X_67_44                       1.000000
X_68_9                        1.000000
X_69_27                       1.000000
X_70_25                       1.000000
X_71_7                        1.000000
X_72_4                        1.000000
X_73_4                        1.000000
X_74_15                       1.000000
X_75_49                       1.000000
X_76_41                       1.000000
X_77_36                       1.000000
X_78_43                       1.000000
X_79_38                       1.000000
X_80_50                       1.000000
X_81_2                        1.000000
X_82_14                       1.000000
X_83_10                       1.000000
X_84_32                       1.000000
X_85_44                       1.000000
X_86_33                       1.000000
X_87_1                        1.000000
X_88_35                       1.000000
X_89_34                       1.000000
X_90_20                       1.000000
X_91_37                       1.000000
X_92_3                        1.000000
X_93_1                        1.000000
X_94_9                        1.000000
X_95_29                       1.000000
X_96_26                       1.000000
X_97_13                       1.000000
X_98_18                       1.000000
X_99_16                       1.000000
X_100_30                      1.000000
All other variables in the range 1-5001 are 0.
